(declare-sort $$unsorted 0)
(declare-fun tptp.op ($$unsorted $$unsorted) $$unsorted)
(assert (forall ((X0 $$unsorted) (X1 $$unsorted) (X2 $$unsorted) (X3 $$unsorted) (X4 $$unsorted)) (= (tptp.op X0 X1) (tptp.op X1 (tptp.op X0 (tptp.op X2 X1))))))
(assert (not (forall ((X0 $$unsorted) (X1 $$unsorted) (X2 $$unsorted) (X3 $$unsorted) (X4 $$unsorted)) (= (tptp.op X0 X1) (tptp.op X2 (tptp.op X3 (tptp.op X4 X1)))))))
(set-info :filename Equation3349_implies_Equation3451)
(check-sat-assuming ( true ))
